(set-option :produce-models true)
(set-logic QF_UF)
(declare-fun p35() Bool)
(declare-fun p27() Bool)
(declare-fun p63() Bool)
(declare-fun p4() Bool)
(declare-fun p14() Bool)
(declare-fun p71() Bool)
(declare-fun p57() Bool)
(declare-fun p61() Bool)
(declare-fun p69() Bool)
(declare-fun p10() Bool)
(declare-fun p7() Bool)
(declare-fun p96() Bool)
(declare-fun p62() Bool)
(declare-fun p43() Bool)
(declare-fun p64() Bool)
(declare-fun p90() Bool)
(declare-fun p16() Bool)
(declare-fun p42() Bool)
(declare-fun p13() Bool)
(declare-fun p19() Bool)
(declare-fun p41() Bool)
(declare-fun p38() Bool)
(declare-fun p47() Bool)
(declare-fun p55() Bool)
(declare-fun p31() Bool)
(declare-fun p95() Bool)
(declare-fun p77() Bool)
(declare-fun p51() Bool)
(declare-fun p6() Bool)
(declare-fun p84() Bool)
(declare-fun p0() Bool)
(declare-fun p53() Bool)
(declare-fun p92() Bool)
(declare-fun p91() Bool)
(declare-fun p37() Bool)
(declare-fun p5() Bool)
(declare-fun p54() Bool)
(declare-fun p11() Bool)
(declare-fun p34() Bool)
(declare-fun p80() Bool)
(declare-fun p3() Bool)
(declare-fun p56() Bool)
(declare-fun p74() Bool)
(declare-fun p52() Bool)
(declare-fun p30() Bool)
(declare-fun p83() Bool)
(declare-fun p44() Bool)
(declare-fun p93() Bool)
(declare-fun p9() Bool)
(declare-fun p68() Bool)
(declare-fun p94() Bool)
(declare-fun p99() Bool)
(declare-fun p23() Bool)
(declare-fun p60() Bool)
(declare-fun p67() Bool)
(declare-fun p73() Bool)
(declare-fun p88() Bool)
(declare-fun p49() Bool)
(declare-fun p86() Bool)
(declare-fun p24() Bool)
(declare-fun p87() Bool)
(declare-fun p29() Bool)
(declare-fun p26() Bool)
(declare-fun p78() Bool)
(declare-fun p81() Bool)
(declare-fun p48() Bool)
(declare-fun p97() Bool)
(declare-fun p89() Bool)
(declare-fun p20() Bool)
(declare-fun p76() Bool)
(declare-fun p28() Bool)
(declare-fun p70() Bool)
(declare-fun p58() Bool)
(declare-fun p21() Bool)
(declare-fun p98() Bool)
(declare-fun p79() Bool)
(declare-fun p75() Bool)
(declare-fun p22() Bool)
(declare-fun p65() Bool)
(declare-fun p8() Bool)
(declare-fun p45() Bool)
(declare-fun p46() Bool)
(declare-fun p2() Bool)
(declare-fun p36() Bool)
(declare-fun p59() Bool)
(declare-fun p12() Bool)
(declare-fun p72() Bool)
(declare-fun p32() Bool)
(declare-fun p40() Bool)
(declare-fun p39() Bool)
(declare-fun p33() Bool)
(declare-fun p15() Bool)
(declare-fun p66() Bool)
(declare-fun p25() Bool)
(declare-fun p18() Bool)
(declare-fun p50() Bool)
(declare-fun p17() Bool)
(declare-fun p1() Bool)
(declare-fun p82() Bool)
(declare-fun p85() Bool)
(assert
(and (or p35 p27 (not p63)) (or (not p4) (not p14) (not p71)) (or p57 p61 p69) (or (not p10) (not p7) p96) (or (not p62) (not p43) p64) (or p10 p90 (not p16)) (or (not p42) (not p13) (not p19)) (or p63 p41 (not p38)) (or p47 p55 p31) (or (not p95) p77 (not p13)) (or p61 (not p51) (not p6)) (or p84 (not p0) (not p77)) (or p53 (not p41) (not p92)) (or (not p91) (not p37) (not p5)) (or p19 (not p54) (not p4)) (or p11 p34 p80) (or (not p3) p56 p74) (or p52 (not p38) (not p30)) (or p83 (not p3) (not p44)) (or (not p93) (not p9) p68) (or (not p3) (not p63) p92) (or p94 (not p99) p77) (or (not p23) p55 (not p47)) (or (not p99) (not p60) p67) (or p73 (not p51) p61) (or (not p88) p49 (not p86)) (or p24 (not p96) (not p77)) (or p87 p61 p90) (or p29 (not p26) (not p78)) (or (not p81) p44 p48) (or p97 p37 p54) (or p89 (not p20) p76) (or (not p96) (not p28) p70) (or (not p58) p90 (not p21)) (or (not p9) p98 p87) (or p79 p3 p75) (or p29 p92 p42) (or (not p22) (not p58) (not p97)) (or p14 (not p54) (not p38)) (or (not p37) p79 p79) (or (not p76) p65 p64) (or (not p49) p49 p57) (or (not p13) (not p8) (not p45)) (or (not p49) (not p14) (not p46)) (or p69 (not p94) p58) (or p46 p4 p2) (or p37 p96 p36) (or (not p71) (not p79) (not p59)) (or p46 p68 p8) (or (not p16) (not p83) p67) (or (not p12) (not p68) p86) (or p0 (not p72) (not p4)) (or p83 (not p53) p71) (or (not p32) p98 p53) (or p40 p81 p73) (or (not p74) p30 p32) (or p39 (not p71) (not p93)) (or (not p77) p99 p11) (or (not p33) p57 p79) (or p36 (not p16) p5) (or (not p13) (not p48) (not p84)) (or (not p52) (not p7) (not p11)) (or (not p75) p51 p20) (or (not p91) (not p37) (not p56)) (or p37 (not p94) p51) (or (not p43) p98 (not p60)) (or (not p55) (not p15) p75) (or p35 p0 (not p74)) (or p61 p7 p41) (or p53 p10 (not p40)) (or p83 p93 (not p78)) (or (not p11) (not p79) p15) (or p99 p66 (not p58)) (or (not p97) p43 p29) (or p2 (not p52) p73) (or (not p52) (not p88) (not p83)) (or p68 (not p25) (not p28)) (or p4 p66 (not p64)) (or (not p6) (not p18) (not p40)) (or p66 (not p25) p79) (or (not p72) (not p58) (not p74)) (or (not p21) (not p88) p67) (or p49 p14 p83) (or (not p27) p61 p27) (or (not p93) p5 p0) (or (not p72) (not p87) p58) (or p36 (not p39) p63) (or (not p86) (not p52) p78) (or p59 p60 p34) (or (not p14) (not p40) (not p61)) (or (not p88) p30 p83) (or (not p60) (not p83) (not p3)) (or p46 (not p42) p56) (or (not p52) (not p79) (not p29)) (or (not p71) p89 (not p5)) (or (not p34) p70 p39) (or (not p23) (not p7) (not p60)) (or p99 (not p52) p48) (or (not p50) (not p73) (not p41)) (or p28 p17 (not p39)) (or p24 p58 p92) (or (not p81) (not p94) p21) (or p16 p61 p35) (or (not p9) p94 (not p1)) (or p58 p57 (not p35)) (or (not p30) (not p59) p73) (or p10 p96 (not p14)) (or (not p33) (not p77) (not p87)) (or p62 p97 p1) (or (not p94) (not p64) (not p81)) (or (not p4) (not p66) (not p24)) (or p63 (not p55) (not p5)) (or p12 p58 p38) (or (not p94) p26 p90) (or (not p69) p13 (not p0)) (or p95 p17 (not p37)) (or (not p41) (not p82) (not p51)) (or p94 (not p30) p36) (or p79 p42 (not p11)) (or p89 p38 (not p0)) (or (not p81) (not p21) (not p46)) (or p47 (not p61) (not p10)) (or p5 (not p70) p35) (or p8 p85 (not p18)) (or p44 (not p13) p38) (or (not p50) p45 (not p78)) (or p8 (not p98) (not p32)) (or p50 (not p98) (not p14)) (or p81 (not p28) (not p3)) (or p17 (not p13) p49) (or p34 (not p83) p69) (or (not p17) (not p11) p49) (or (not p68) (not p72) p87) (or (not p89) (not p71) (not p10)) (or p75 (not p52) p78) (or (not p59) (not p14) p46) (or p25 p36 (not p60)) (or (not p77) p45 (not p30)) (or (not p3) (not p59) (not p59)) (or p34 (not p70) (not p92)) (or (not p43) (not p97) p54) (or p47 p13 (not p15)) (or (not p89) p43 p80) (or p92 (not p23) p68) (or p27 p27 (not p34)) (or (not p8) (not p58) (not p77)) (or p93 (not p68) p89) (or (not p7) (not p60) p17) (or p43 p56 (not p38)) (or p54 (not p72) p14) (or p36 p76 (not p3)) (or (not p21) p28 (not p42)) (or (not p96) p16 (not p56)) (or p47 (not p55) p41) (or (not p37) (not p18) (not p85)) (or p11 p68 (not p67)) (or p58 (not p36) p33) (or p1 (not p88) (not p19)) (or p8 (not p77) (not p21)) (or (not p91) (not p81) p76) (or (not p20) (not p93) p99) (or (not p66) p81 (not p47)) (or p36 (not p31) (not p42)) (or (not p55) (not p37) (not p8)) (or (not p11) p29 (not p95)) (or (not p81) (not p69) p41) (or (not p34) (not p9) (not p18)) (or (not p45) (not p33) (not p29)) (or (not p23) (not p53) (not p53)) (or p54 (not p69) p70) (or p61 (not p59) p89) (or (not p42) p14 p49) (or (not p98) p26 p83) (or p94 p9 (not p34)) (or p41 p61 p57) (or p80 p57 (not p97)) (or p9 p58 p85) (or p51 (not p10) p46) (or (not p11) (not p87) (not p26)) (or p75 p17 p85) (or p75 (not p47) (not p26)) (or (not p17) (not p56) (not p41)) (or p16 p71 p78) (or (not p11) p54 (not p57)) (or p48 p99 (not p60)) (or p27 p88 (not p18)) (or (not p7) (not p57) (not p66)) (or p57 p25 (not p15)) (or p26 p39 p94) (or (not p53) (not p45) p48) (or (not p1) p72 p88) (or (not p53) (not p7) (not p98)) (or (not p55) (not p66) p79) (or p98 (not p4) (not p87)) (or p59 p93 p61) (or p8 (not p45) p55) (or p35 p14 p87) (or (not p49) (not p90) p19) (or (not p10) p92 (not p71)) (or (not p99) (not p98) (not p95)) (or (not p21) p49 p15) (or p72 (not p14) (not p35)) (or (not p6) p4 p96) (or p98 p51 p70) (or p5 p34 (not p35)) (or (not p73) p65 p0) (or p66 p79 (not p6)) (or (not p14) p7 (not p66)) (or (not p37) p51 p54) (or (not p91) (not p3) p87) (or p61 p43 (not p75)) (or p84 p25 (not p31)) (or p33 p88 p18) (or (not p74) (not p14) (not p4)) (or p87 p77 (not p77)) (or (not p16) (not p73) p12) (or p14 (not p63) p13) (or p94 (not p57) (not p85)) (or (not p23) p11 (not p42)) (or p27 p68 p0) (or p51 (not p98) p12) (or p94 (not p7) p49) (or (not p8) p66 p38) (or (not p59) p9 p59) (or (not p67) (not p2) p17) (or (not p56) p54 p91) (or p27 p90 p94) (or p60 p56 (not p31)) (or (not p14) (not p14) (not p96)) (or p41 (not p49) p75) (or p55 (not p41) (not p54)) (or p28 p89 (not p70)) (or p42 (not p76) (not p72)) (or p0 (not p50) p4) (or p20 p39 (not p76)) (or (not p88) p95 p38) (or (not p19) p52 p42) (or p4 p36 p6) (or (not p22) (not p19) p67) (or p0 p14 (not p6)) (or p23 (not p70) p99) (or p99 p65 p90) (or (not p87) p96 p63) (or p1 (not p84) (not p89)) (or (not p45) p46 (not p75)) (or (not p24) p47 (not p81)) (or (not p69) (not p39) p54) (or (not p18) (not p43) (not p27)) (or p22 p47 p93) (or p17 (not p30) p23) (or (not p25) p54 p41) (or p84 p16 p6) (or p53 (not p90) (not p4)) (or p20 p26 p41) (or p85 (not p95) p42) (or (not p35) p57 (not p88)) (or (not p71) (not p62) p68) (or (not p73) (not p51) p73) (or p40 p25 p93) (or (not p62) p21 (not p85)) (or p94 p85 p82) (or (not p37) (not p11) (not p18)) (or (not p92) p72 (not p94)) (or p38 (not p50) p13) (or p39 p65 (not p53)) (or p53 (not p31) (not p97)) (or p30 p87 (not p76)) (or (not p56) p62 p78) (or p0 p80 (not p33)) (or p41 (not p79) p51) (or (not p98) (not p56) (not p53)) (or (not p80) (not p19) (not p46)) (or p25 p7 p99) (or (not p24) (not p51) p45) (or p31 p1 (not p27)) (or p71 p1 (not p37)) (or (not p92) p13 (not p32)) (or p85 (not p62) p6) (or (not p57) p10 (not p80)) (or p70 (not p6) (not p31)) (or (not p43) p13 (not p51)) (or (not p76) p83 p66) (or (not p86) (not p79) p58) (or p88 p2 p47) (or (not p48) (not p6) (not p29)) (or (not p95) (not p63) (not p93)) (or (not p99) (not p67) (not p88)) (or p71 (not p57) p56) (or p76 (not p42) p55) (or (not p17) p87 p32) (or (not p7) p95 p81) (or p22 (not p10) (not p27)) (or (not p18) (not p43) p44) (or (not p78) p62 p68) (or p11 p81 p43) (or (not p87) p13 p53) (or (not p40) p61 (not p75)) (or p76 p75 (not p10)) (or p40 p25 (not p66)) (or p24 (not p53) (not p47)) (or p76 (not p99) p0) (or p97 p48 (not p49)) (or (not p58) (not p30) (not p91)) (or p96 p9 p89) (or (not p4) (not p13) p89) (or p93 p95 p59) (or p11 p79 p91) (or (not p57) p77 (not p84)) (or (not p52) (not p22) p95) (or (not p76) (not p76) p39) (or (not p4) p1 p16) (or (not p0) p69 p12) (or p61 p67 (not p95)) (or p71 p24 p48) (or p41 p1 (not p38)) (or p0 (not p86) p86) (or p64 p78 (not p24)) (or p0 p33 (not p53)) (or p59 (not p10) p1) (or p44 (not p48) (not p95)) (or (not p53) p90 p20) (or p63 (not p78) p20) (or (not p31) (not p64) p52) (or (not p1) (not p76) (not p34)) (or p41 (not p41) (not p39)) (or (not p35) p90 p96) (or p18 p64 p21) (or (not p81) p91 p84) (or p4 p41 p96) (or (not p5) p8 (not p59)) (or p59 p25 p52) (or p63 (not p76) (not p23)) (or (not p55) (not p64) (not p58)) (or p45 p30 (not p25)) (or p74 p1 (not p17)) (or (not p98) (not p40) (not p84)) (or p86 p13 p67) (or p83 p20 (not p41)) (or (not p2) p17 p23) (or p27 p36 p94) (or p70 p56 p16) (or (not p22) p56 p9) (or p62 p55 (not p71)) (or (not p99) p48 p65) (or p42 p22 (not p17)) (or (not p33) p45 p56) (or p6 (not p53) (not p33)) (or p24 p23 (not p11)) (or (not p61) p3 (not p85)) (or p46 p49 (not p64)) (or (not p78) p71 (not p83)) (or (not p14) (not p34) (not p14)) (or (not p91) (not p14) p10) (or p36 (not p51) (not p66)) (or (not p28) (not p95) (not p0)) (or p14 p58 p78) (or (not p57) p26 p34) (or p95 (not p25) p47) (or p50 (not p53) p65) (or p6 p35 p22) (or p59 (not p86) (not p13)) (or p28 (not p43) p72) (or p74 p82 (not p83)) (or p2 p31 p27) (or (not p66) p11 p80) (or p12 p51 p55) (or p86 p61 (not p59)) (or (not p3) p44 p97) (or (not p31) p75 p4) (or (not p82) p25 p21) (or p29 p88 p42) (or (not p74) (not p57) (not p67)) (or p22 p47 p28) (or p25 p23 p68) (or (not p99) (not p38) (not p86)) (or p33 (not p99) p30) (or (not p99) p42 (not p77)) (or (not p79) p81 (not p42)) (or p30 p30 p19) (or (not p23) (not p6) (not p21)) (or p56 p92 (not p11)) (or p97 p22 p59) (or (not p41) p92 p32) (or p41 p31 (not p24)) (or p10 p97 (not p73)) (or p23 (not p56) (not p48)) (or (not p35) p96 (not p5)) (or (not p82) (not p62) p27) (or p41 (not p10) (not p22)) (or (not p48) (not p14) p65) (or p6 p36 (not p2)) (or p3 (not p72) p46) (or p38 p67 p43) (or (not p64) p32 (not p42)) (or p13 p80 (not p38)) (or p55 p29 (not p95)) (or (not p87) p85 p45) (or (not p34) (not p31) (not p22)) (or p53 (not p86) (not p42)) (or p19 p29 p39) (or p50 (not p51) p28) (or p25 p88 p21) (or (not p2) p55 p69) (or (not p86) (not p77) (not p95)) (or (not p56) p27 p34) (or p39 (not p56) p60) (or p47 p40 p92) (or p37 p63 (not p19)) (or (not p19) (not p26) p99) (or (not p64) p86 (not p14)) (or p20 p21 (not p24)) (or p85 p66 (not p50)) (or (not p55) p21 (not p94)) (or (not p9) (not p44) (not p58)) (or (not p51) p28 (not p76)) (or p17 p39 (not p41)) (or p17 p28 (not p1)) (or (not p94) (not p71) (not p40)) (or p19 (not p25) p1) (or (not p88) (not p13) (not p21)))
)
(check-sat)
(get-model)
